(set-logic UF)
(declare-sort Set 0)
(declare-sort Elem 0)
(declare-fun member (Elem Set) Bool)
(declare-fun subset (Set Set) Bool)
(declare-fun seteq (Set Set) Bool)
(declare-fun union (Set Set) Set)
(declare-fun intersection (Set Set) Set)
(declare-fun difference (Set Set) Set)
(declare-fun a () Set)
(declare-fun b () Set)
(assert (not (= (not (not (forall ((?x Elem)) (or (not (member ?x (intersection a b))) (member ?x (intersection b a)))))) (forall ((?x Elem)) (or (not (member ?x (intersection a b))) (member ?x (intersection b a)))))))
(check-sat)
(exit)
